(set-info :smt-lib-version 2.6)
(set-logic QF_BV)
(set-info :source |
Generated by: Maximilian A. Zinkus
Generated on: 2022-10-12
Generator: MCMPC
Application: Model counting optimization for MPC functionalities
Target solver: CryptoMinisat, Z3
|)
(set-info :license "https://creativecommons.org/licenses/by/4.0/")
(set-info :category "industrial")
(set-info :status unknown)
(declare-fun chosen_0 () Bool)
(declare-fun chosen () (_ BitVec 36))
(declare-fun chosen_1 () Bool)
(declare-fun chosen_2 () Bool)
(declare-fun chosen_3 () Bool)
(declare-fun chosen_4 () Bool)
(declare-fun chosen_5 () Bool)
(declare-fun chosen_6 () Bool)
(declare-fun chosen_7 () Bool)
(declare-fun chosen_8 () Bool)
(declare-fun chosen_9 () Bool)
(declare-fun chosen_10 () Bool)
(declare-fun chosen_11 () Bool)
(declare-fun chosen_12 () Bool)
(declare-fun chosen_13 () Bool)
(declare-fun chosen_14 () Bool)
(declare-fun chosen_15 () Bool)
(declare-fun chosen_16 () Bool)
(declare-fun chosen_17 () Bool)
(declare-fun chosen_18 () Bool)
(declare-fun chosen_19 () Bool)
(declare-fun chosen_20 () Bool)
(declare-fun chosen_21 () Bool)
(declare-fun chosen_22 () Bool)
(declare-fun chosen_23 () Bool)
(declare-fun chosen_24 () Bool)
(declare-fun chosen_25 () Bool)
(declare-fun chosen_26 () Bool)
(declare-fun chosen_27 () Bool)
(declare-fun chosen_28 () Bool)
(declare-fun chosen_29 () Bool)
(declare-fun chosen_30 () Bool)
(declare-fun chosen_31 () Bool)
(declare-fun chosen_32 () Bool)
(declare-fun chosen_33 () Bool)
(declare-fun chosen_34 () Bool)
(declare-fun chosen_35 () Bool)
(declare-fun target_0 () Bool)
(declare-fun target () (_ BitVec 36))
(declare-fun target_1 () Bool)
(declare-fun target_2 () Bool)
(declare-fun target_3 () Bool)
(declare-fun target_4 () Bool)
(declare-fun target_5 () Bool)
(declare-fun target_6 () Bool)
(declare-fun target_7 () Bool)
(declare-fun target_8 () Bool)
(declare-fun target_9 () Bool)
(declare-fun target_10 () Bool)
(declare-fun target_11 () Bool)
(declare-fun target_12 () Bool)
(declare-fun target_13 () Bool)
(declare-fun target_14 () Bool)
(declare-fun target_15 () Bool)
(declare-fun target_16 () Bool)
(declare-fun target_17 () Bool)
(declare-fun target_18 () Bool)
(declare-fun target_19 () Bool)
(declare-fun target_20 () Bool)
(declare-fun target_21 () Bool)
(declare-fun target_22 () Bool)
(declare-fun target_23 () Bool)
(declare-fun target_24 () Bool)
(declare-fun target_25 () Bool)
(declare-fun target_26 () Bool)
(declare-fun target_27 () Bool)
(declare-fun target_28 () Bool)
(declare-fun target_29 () Bool)
(declare-fun target_30 () Bool)
(declare-fun target_31 () Bool)
(declare-fun target_32 () Bool)
(declare-fun target_33 () Bool)
(declare-fun target_34 () Bool)
(declare-fun target_35 () Bool)
(declare-fun target_outcome0_t0 () (_ BitVec 36))
(declare-fun chosen_outcome0 () (_ BitVec 36))
(declare-fun target_outcome1_t0 () (_ BitVec 36))
(declare-fun chosen_outcome1 () (_ BitVec 36))
(declare-fun target_bit_0_0_bool () Bool)
(declare-fun target_bit_0_1_bool () Bool)
(declare-fun target_bit_0_2_bool () Bool)
(declare-fun target_bit_0_3_bool () Bool)
(declare-fun target_bit_0_4_bool () Bool)
(declare-fun target_bit_0_5_bool () Bool)
(declare-fun target_bit_0_6_bool () Bool)
(declare-fun target_bit_0_7_bool () Bool)
(declare-fun target_bit_0_8_bool () Bool)
(declare-fun target_bit_0_9_bool () Bool)
(declare-fun target_bit_0_10_bool () Bool)
(declare-fun target_bit_0_11_bool () Bool)
(declare-fun target_bit_0_12_bool () Bool)
(declare-fun target_bit_0_13_bool () Bool)
(declare-fun target_bit_0_14_bool () Bool)
(declare-fun target_bit_0_15_bool () Bool)
(declare-fun target_bit_0_16_bool () Bool)
(declare-fun target_bit_0_17_bool () Bool)
(declare-fun target_bit_0_18_bool () Bool)
(declare-fun target_bit_0_19_bool () Bool)
(declare-fun target_bit_0_20_bool () Bool)
(declare-fun target_bit_0_21_bool () Bool)
(declare-fun target_bit_0_22_bool () Bool)
(declare-fun target_bit_0_23_bool () Bool)
(declare-fun target_bit_1_0_bool () Bool)
(declare-fun target_bit_1_1_bool () Bool)
(declare-fun target_bit_1_2_bool () Bool)
(declare-fun target_bit_1_3_bool () Bool)
(declare-fun target_bit_1_4_bool () Bool)
(declare-fun target_bit_1_5_bool () Bool)
(declare-fun target_bit_1_6_bool () Bool)
(declare-fun target_bit_1_7_bool () Bool)
(declare-fun target_bit_1_8_bool () Bool)
(declare-fun target_bit_1_9_bool () Bool)
(declare-fun target_bit_1_10_bool () Bool)
(declare-fun target_bit_1_11_bool () Bool)
(declare-fun target_bit_1_12_bool () Bool)
(declare-fun target_bit_1_13_bool () Bool)
(declare-fun target_bit_1_14_bool () Bool)
(declare-fun target_bit_1_15_bool () Bool)
(declare-fun target_bit_1_16_bool () Bool)
(declare-fun target_bit_1_17_bool () Bool)
(declare-fun target_bit_1_18_bool () Bool)
(declare-fun target_bit_1_19_bool () Bool)
(declare-fun target_bit_1_20_bool () Bool)
(declare-fun target_bit_1_21_bool () Bool)
(declare-fun target_bit_1_22_bool () Bool)
(declare-fun target_bit_1_23_bool () Bool)
(assert
 (= (= (_ bv1 1) ((_ extract 0 0) chosen)) (= chosen_0 true)))
(assert
 (= (= (_ bv1 1) ((_ extract 1 1) chosen)) (= chosen_1 true)))
(assert
 (= (= (_ bv1 1) ((_ extract 2 2) chosen)) (= chosen_2 true)))
(assert
 (= (= (_ bv1 1) ((_ extract 3 3) chosen)) (= chosen_3 true)))
(assert
 (= (= (_ bv1 1) ((_ extract 4 4) chosen)) (= chosen_4 true)))
(assert
 (= (= (_ bv1 1) ((_ extract 5 5) chosen)) (= chosen_5 true)))
(assert
 (= (= (_ bv1 1) ((_ extract 6 6) chosen)) (= chosen_6 true)))
(assert
 (= (= (_ bv1 1) ((_ extract 7 7) chosen)) (= chosen_7 true)))
(assert
 (= (= (_ bv1 1) ((_ extract 8 8) chosen)) (= chosen_8 true)))
(assert
 (= (= (_ bv1 1) ((_ extract 9 9) chosen)) (= chosen_9 true)))
(assert
 (= (= (_ bv1 1) ((_ extract 10 10) chosen)) (= chosen_10 true)))
(assert
 (= (= (_ bv1 1) ((_ extract 11 11) chosen)) (= chosen_11 true)))
(assert
 (= (= (_ bv1 1) ((_ extract 12 12) chosen)) (= chosen_12 true)))
(assert
 (= (= (_ bv1 1) ((_ extract 13 13) chosen)) (= chosen_13 true)))
(assert
 (= (= (_ bv1 1) ((_ extract 14 14) chosen)) (= chosen_14 true)))
(assert
 (= (= (_ bv1 1) ((_ extract 15 15) chosen)) (= chosen_15 true)))
(assert
 (= (= (_ bv1 1) ((_ extract 16 16) chosen)) (= chosen_16 true)))
(assert
 (= (= (_ bv1 1) ((_ extract 17 17) chosen)) (= chosen_17 true)))
(assert
 (= (= (_ bv1 1) ((_ extract 18 18) chosen)) (= chosen_18 true)))
(assert
 (= (= (_ bv1 1) ((_ extract 19 19) chosen)) (= chosen_19 true)))
(assert
 (= (= (_ bv1 1) ((_ extract 20 20) chosen)) (= chosen_20 true)))
(assert
 (= (= (_ bv1 1) ((_ extract 21 21) chosen)) (= chosen_21 true)))
(assert
 (= (= (_ bv1 1) ((_ extract 22 22) chosen)) (= chosen_22 true)))
(assert
 (= (= (_ bv1 1) ((_ extract 23 23) chosen)) (= chosen_23 true)))
(assert
 (= (= (_ bv1 1) ((_ extract 24 24) chosen)) (= chosen_24 true)))
(assert
 (= (= (_ bv1 1) ((_ extract 25 25) chosen)) (= chosen_25 true)))
(assert
 (= (= (_ bv1 1) ((_ extract 26 26) chosen)) (= chosen_26 true)))
(assert
 (= (= (_ bv1 1) ((_ extract 27 27) chosen)) (= chosen_27 true)))
(assert
 (= (= (_ bv1 1) ((_ extract 28 28) chosen)) (= chosen_28 true)))
(assert
 (= (= (_ bv1 1) ((_ extract 29 29) chosen)) (= chosen_29 true)))
(assert
 (= (= (_ bv1 1) ((_ extract 30 30) chosen)) (= chosen_30 true)))
(assert
 (= (= (_ bv1 1) ((_ extract 31 31) chosen)) (= chosen_31 true)))
(assert
 (= (= (_ bv1 1) ((_ extract 32 32) chosen)) (= chosen_32 true)))
(assert
 (= (= (_ bv1 1) ((_ extract 33 33) chosen)) (= chosen_33 true)))
(assert
 (= (= (_ bv1 1) ((_ extract 34 34) chosen)) (= chosen_34 true)))
(assert
 (= (= (_ bv1 1) ((_ extract 35 35) chosen)) (= chosen_35 true)))
(assert
 (= (= (_ bv1 1) ((_ extract 0 0) target)) (= target_0 true)))
(assert
 (= (= (_ bv1 1) ((_ extract 1 1) target)) (= target_1 true)))
(assert
 (= (= (_ bv1 1) ((_ extract 2 2) target)) (= target_2 true)))
(assert
 (= (= (_ bv1 1) ((_ extract 3 3) target)) (= target_3 true)))
(assert
 (= (= (_ bv1 1) ((_ extract 4 4) target)) (= target_4 true)))
(assert
 (= (= (_ bv1 1) ((_ extract 5 5) target)) (= target_5 true)))
(assert
 (= (= (_ bv1 1) ((_ extract 6 6) target)) (= target_6 true)))
(assert
 (= (= (_ bv1 1) ((_ extract 7 7) target)) (= target_7 true)))
(assert
 (= (= (_ bv1 1) ((_ extract 8 8) target)) (= target_8 true)))
(assert
 (= (= (_ bv1 1) ((_ extract 9 9) target)) (= target_9 true)))
(assert
 (= (= (_ bv1 1) ((_ extract 10 10) target)) (= target_10 true)))
(assert
 (= (= (_ bv1 1) ((_ extract 11 11) target)) (= target_11 true)))
(assert
 (= (= (_ bv1 1) ((_ extract 12 12) target)) (= target_12 true)))
(assert
 (= (= (_ bv1 1) ((_ extract 13 13) target)) (= target_13 true)))
(assert
 (= (= (_ bv1 1) ((_ extract 14 14) target)) (= target_14 true)))
(assert
 (= (= (_ bv1 1) ((_ extract 15 15) target)) (= target_15 true)))
(assert
 (= (= (_ bv1 1) ((_ extract 16 16) target)) (= target_16 true)))
(assert
 (= (= (_ bv1 1) ((_ extract 17 17) target)) (= target_17 true)))
(assert
 (= (= (_ bv1 1) ((_ extract 18 18) target)) (= target_18 true)))
(assert
 (= (= (_ bv1 1) ((_ extract 19 19) target)) (= target_19 true)))
(assert
 (= (= (_ bv1 1) ((_ extract 20 20) target)) (= target_20 true)))
(assert
 (= (= (_ bv1 1) ((_ extract 21 21) target)) (= target_21 true)))
(assert
 (= (= (_ bv1 1) ((_ extract 22 22) target)) (= target_22 true)))
(assert
 (= (= (_ bv1 1) ((_ extract 23 23) target)) (= target_23 true)))
(assert
 (= (= (_ bv1 1) ((_ extract 24 24) target)) (= target_24 true)))
(assert
 (= (= (_ bv1 1) ((_ extract 25 25) target)) (= target_25 true)))
(assert
 (= (= (_ bv1 1) ((_ extract 26 26) target)) (= target_26 true)))
(assert
 (= (= (_ bv1 1) ((_ extract 27 27) target)) (= target_27 true)))
(assert
 (= (= (_ bv1 1) ((_ extract 28 28) target)) (= target_28 true)))
(assert
 (= (= (_ bv1 1) ((_ extract 29 29) target)) (= target_29 true)))
(assert
 (= (= (_ bv1 1) ((_ extract 30 30) target)) (= target_30 true)))
(assert
 (= (= (_ bv1 1) ((_ extract 31 31) target)) (= target_31 true)))
(assert
 (= (= (_ bv1 1) ((_ extract 32 32) target)) (= target_32 true)))
(assert
 (= (= (_ bv1 1) ((_ extract 33 33) target)) (= target_33 true)))
(assert
 (= (= (_ bv1 1) ((_ extract 34 34) target)) (= target_34 true)))
(assert
 (= (= (_ bv1 1) ((_ extract 35 35) target)) (= target_35 true)))
(assert
 (let (($x382 (not (bvuge (bvmul chosen_outcome0 (_ bv140001 36)) (bvadd (_ bv12000000000 36) target_outcome0_t0)))))
 (= (_ bv0 1) (ite (bvuge chosen_outcome0 (_ bv490849 36)) (_ bv0 1) (ite $x382 (_ bv1 1) (_ bv0 1))))))
(assert
 (let (($x445 (not (bvuge (bvmul chosen_outcome1 (_ bv140001 36)) (bvadd (_ bv12000000000 36) target_outcome1_t0)))))
 (= (_ bv1 1) (ite (bvuge chosen_outcome1 (_ bv490849 36)) (_ bv0 1) (ite $x445 (_ bv1 1) (_ bv0 1))))))
(assert
 (let (($x2827 (bvuge (_ bv221882 36) (_ bv490849 36))))
 (let ((?x3876 (ite $x2827 (_ bv0 1) (ite (not (bvuge (bvmul (_ bv221882 36) (_ bv140001 36)) (bvadd (_ bv12000000000 36) target))) (_ bv1 1) (_ bv0 1)))))
 (= (_ bv0 1) ?x3876))))
(assert
 (let ((?x4358 (ite (not (bvuge (bvmul (_ bv221882 36) (_ bv140001 36)) (bvadd (_ bv12000000000 36) target_outcome1_t0))) (_ bv1 1) (_ bv0 1))))
 (let (($x2827 (bvuge (_ bv221882 36) (_ bv490849 36))))
 (= (_ bv0 1) (ite $x2827 (_ bv0 1) ?x4358)))))
(assert
 (not (= (_ bv221882 36) chosen)))
(assert
 (let (($x2178 (bvuge (_ bv176562 36) (_ bv490849 36))))
 (let ((?x854 (ite $x2178 (_ bv0 1) (ite (not (bvuge (bvmul (_ bv176562 36) (_ bv140001 36)) (bvadd (_ bv12000000000 36) target))) (_ bv1 1) (_ bv0 1)))))
 (= (_ bv0 1) ?x854))))
(assert
 (let ((?x887 (ite (not (bvuge (bvmul (_ bv176562 36) (_ bv140001 36)) (bvadd (_ bv12000000000 36) target_outcome1_t0))) (_ bv1 1) (_ bv0 1))))
 (let (($x2178 (bvuge (_ bv176562 36) (_ bv490849 36))))
 (= (_ bv0 1) (ite $x2178 (_ bv0 1) ?x887)))))
(assert
 (not (= (_ bv176562 36) chosen)))
(assert
 (let (($x12762 (bvuge (_ bv80508 36) (_ bv490849 36))))
 (let ((?x9283 (ite $x12762 (_ bv0 1) (ite (not (bvuge (bvmul (_ bv80508 36) (_ bv140001 36)) (bvadd (_ bv12000000000 36) target))) (_ bv1 1) (_ bv0 1)))))
 (= (_ bv1 1) ?x9283))))
(assert
 (let ((?x3904 (ite (not (bvuge (bvmul (_ bv80508 36) (_ bv140001 36)) (bvadd (_ bv12000000000 36) target_outcome0_t0))) (_ bv1 1) (_ bv0 1))))
 (let (($x12762 (bvuge (_ bv80508 36) (_ bv490849 36))))
 (= (_ bv1 1) (ite $x12762 (_ bv0 1) ?x3904)))))
(assert
 (not (= (_ bv80508 36) chosen)))
(assert
 (let (($x6161 (bvuge (_ bv138535 36) (_ bv490849 36))))
 (let ((?x3713 (ite $x6161 (_ bv0 1) (ite (not (bvuge (bvmul (_ bv138535 36) (_ bv140001 36)) (bvadd (_ bv12000000000 36) target))) (_ bv1 1) (_ bv0 1)))))
 (= (_ bv1 1) ?x3713))))
(assert
 (let ((?x5946 (ite (not (bvuge (bvmul (_ bv138535 36) (_ bv140001 36)) (bvadd (_ bv12000000000 36) target_outcome0_t0))) (_ bv1 1) (_ bv0 1))))
 (let (($x6161 (bvuge (_ bv138535 36) (_ bv490849 36))))
 (= (_ bv1 1) (ite $x6161 (_ bv0 1) ?x5946)))))
(assert
 (not (= (_ bv138535 36) chosen)))
(assert
 (let (($x30027 (bvuge (_ bv164510 36) (_ bv490849 36))))
 (let ((?x29931 (ite $x30027 (_ bv0 1) (ite (not (bvuge (bvmul (_ bv164510 36) (_ bv140001 36)) (bvadd (_ bv12000000000 36) target))) (_ bv1 1) (_ bv0 1)))))
 (= (_ bv0 1) ?x29931))))
(assert
 (let ((?x15045 (ite (not (bvuge (bvmul (_ bv164510 36) (_ bv140001 36)) (bvadd (_ bv12000000000 36) target_outcome1_t0))) (_ bv1 1) (_ bv0 1))))
 (let (($x30027 (bvuge (_ bv164510 36) (_ bv490849 36))))
 (= (_ bv0 1) (ite $x30027 (_ bv0 1) ?x15045)))))
(assert
 (not (= (_ bv164510 36) chosen)))
(assert
 (let (($x23906 (bvuge (_ bv159236 36) (_ bv490849 36))))
 (let ((?x30137 (ite $x23906 (_ bv0 1) (ite (not (bvuge (bvmul (_ bv159236 36) (_ bv140001 36)) (bvadd (_ bv12000000000 36) target))) (_ bv1 1) (_ bv0 1)))))
 (= (_ bv1 1) ?x30137))))
(assert
 (let ((?x19358 (ite (not (bvuge (bvmul (_ bv159236 36) (_ bv140001 36)) (bvadd (_ bv12000000000 36) target_outcome0_t0))) (_ bv1 1) (_ bv0 1))))
 (let (($x23906 (bvuge (_ bv159236 36) (_ bv490849 36))))
 (= (_ bv1 1) (ite $x23906 (_ bv0 1) ?x19358)))))
(assert
 (not (= (_ bv159236 36) chosen)))
(assert
 (let (($x13571 (bvuge (_ bv161104 36) (_ bv490849 36))))
 (let ((?x9457 (ite $x13571 (_ bv0 1) (ite (not (bvuge (bvmul (_ bv161104 36) (_ bv140001 36)) (bvadd (_ bv12000000000 36) target))) (_ bv1 1) (_ bv0 1)))))
 (= (_ bv1 1) ?x9457))))
(assert
 (let ((?x17514 (ite (not (bvuge (bvmul (_ bv161104 36) (_ bv140001 36)) (bvadd (_ bv12000000000 36) target_outcome0_t0))) (_ bv1 1) (_ bv0 1))))
 (let (($x13571 (bvuge (_ bv161104 36) (_ bv490849 36))))
 (= (_ bv1 1) (ite $x13571 (_ bv0 1) ?x17514)))))
(assert
 (not (= (_ bv161104 36) chosen)))
(assert
 (let (($x12755 (bvuge (_ bv161297 36) (_ bv490849 36))))
 (let ((?x20228 (ite $x12755 (_ bv0 1) (ite (not (bvuge (bvmul (_ bv161297 36) (_ bv140001 36)) (bvadd (_ bv12000000000 36) target))) (_ bv1 1) (_ bv0 1)))))
 (= (_ bv1 1) ?x20228))))
(assert
 (let ((?x2760 (ite (not (bvuge (bvmul (_ bv161297 36) (_ bv140001 36)) (bvadd (_ bv12000000000 36) target_outcome0_t0))) (_ bv1 1) (_ bv0 1))))
 (let (($x12755 (bvuge (_ bv161297 36) (_ bv490849 36))))
 (= (_ bv1 1) (ite $x12755 (_ bv0 1) ?x2760)))))
(assert
 (not (= (_ bv161297 36) chosen)))
(assert
 (let (($x9677 (bvuge (_ bv163105 36) (_ bv490849 36))))
 (let ((?x855 (ite $x9677 (_ bv0 1) (ite (not (bvuge (bvmul (_ bv163105 36) (_ bv140001 36)) (bvadd (_ bv12000000000 36) target))) (_ bv1 1) (_ bv0 1)))))
 (= (_ bv0 1) ?x855))))
(assert
 (let ((?x24860 (ite (not (bvuge (bvmul (_ bv163105 36) (_ bv140001 36)) (bvadd (_ bv12000000000 36) target_outcome1_t0))) (_ bv1 1) (_ bv0 1))))
 (let (($x9677 (bvuge (_ bv163105 36) (_ bv490849 36))))
 (= (_ bv0 1) (ite $x9677 (_ bv0 1) ?x24860)))))
(assert
 (not (= (_ bv163105 36) chosen)))
(assert
 (let (($x31361 (bvuge (_ bv162157 36) (_ bv490849 36))))
 (let ((?x30605 (ite $x31361 (_ bv0 1) (ite (not (bvuge (bvmul (_ bv162157 36) (_ bv140001 36)) (bvadd (_ bv12000000000 36) target))) (_ bv1 1) (_ bv0 1)))))
 (= (_ bv1 1) ?x30605))))
(assert
 (let ((?x26146 (ite (not (bvuge (bvmul (_ bv162157 36) (_ bv140001 36)) (bvadd (_ bv12000000000 36) target_outcome0_t0))) (_ bv1 1) (_ bv0 1))))
 (let (($x31361 (bvuge (_ bv162157 36) (_ bv490849 36))))
 (= (_ bv1 1) (ite $x31361 (_ bv0 1) ?x26146)))))
(assert
 (not (= (_ bv162157 36) chosen)))
(assert
 (let (($x9008 (bvuge (_ bv162535 36) (_ bv490849 36))))
 (let ((?x28369 (ite $x9008 (_ bv0 1) (ite (not (bvuge (bvmul (_ bv162535 36) (_ bv140001 36)) (bvadd (_ bv12000000000 36) target))) (_ bv1 1) (_ bv0 1)))))
 (= (_ bv1 1) ?x28369))))
(assert
 (let ((?x18036 (ite (not (bvuge (bvmul (_ bv162535 36) (_ bv140001 36)) (bvadd (_ bv12000000000 36) target_outcome0_t0))) (_ bv1 1) (_ bv0 1))))
 (let (($x9008 (bvuge (_ bv162535 36) (_ bv490849 36))))
 (= (_ bv1 1) (ite $x9008 (_ bv0 1) ?x18036)))))
(assert
 (not (= (_ bv162535 36) chosen)))
(assert
 (let (($x24786 (bvuge (_ bv162622 36) (_ bv490849 36))))
 (let ((?x17995 (ite $x24786 (_ bv0 1) (ite (not (bvuge (bvmul (_ bv162622 36) (_ bv140001 36)) (bvadd (_ bv12000000000 36) target))) (_ bv1 1) (_ bv0 1)))))
 (= (_ bv1 1) ?x17995))))
(assert
 (let ((?x7787 (ite (not (bvuge (bvmul (_ bv162622 36) (_ bv140001 36)) (bvadd (_ bv12000000000 36) target_outcome0_t0))) (_ bv1 1) (_ bv0 1))))
 (let (($x24786 (bvuge (_ bv162622 36) (_ bv490849 36))))
 (= (_ bv1 1) (ite $x24786 (_ bv0 1) ?x7787)))))
(assert
 (not (= (_ bv162622 36) chosen)))
(assert
 (let (($x6176 (bvuge (_ bv162641 36) (_ bv490849 36))))
 (let ((?x4695 (ite $x6176 (_ bv0 1) (ite (not (bvuge (bvmul (_ bv162641 36) (_ bv140001 36)) (bvadd (_ bv12000000000 36) target))) (_ bv1 1) (_ bv0 1)))))
 (= (_ bv1 1) ?x4695))))
(assert
 (let ((?x28317 (ite (not (bvuge (bvmul (_ bv162641 36) (_ bv140001 36)) (bvadd (_ bv12000000000 36) target_outcome0_t0))) (_ bv1 1) (_ bv0 1))))
 (let (($x6176 (bvuge (_ bv162641 36) (_ bv490849 36))))
 (= (_ bv1 1) (ite $x6176 (_ bv0 1) ?x28317)))))
(assert
 (not (= (_ bv162641 36) chosen)))
(assert
 (let (($x7488 (bvuge (_ bv163036 36) (_ bv490849 36))))
 (let ((?x8606 (ite $x7488 (_ bv0 1) (ite (not (bvuge (bvmul (_ bv163036 36) (_ bv140001 36)) (bvadd (_ bv12000000000 36) target))) (_ bv1 1) (_ bv0 1)))))
 (= (_ bv0 1) ?x8606))))
(assert
 (let ((?x17095 (ite (not (bvuge (bvmul (_ bv163036 36) (_ bv140001 36)) (bvadd (_ bv12000000000 36) target_outcome1_t0))) (_ bv1 1) (_ bv0 1))))
 (let (($x7488 (bvuge (_ bv163036 36) (_ bv490849 36))))
 (= (_ bv0 1) (ite $x7488 (_ bv0 1) ?x17095)))))
(assert
 (not (= (_ bv163036 36) chosen)))
(assert
 (let (($x32556 (bvuge (_ bv162720 36) (_ bv490849 36))))
 (let ((?x14049 (ite $x32556 (_ bv0 1) (ite (not (bvuge (bvmul (_ bv162720 36) (_ bv140001 36)) (bvadd (_ bv12000000000 36) target))) (_ bv1 1) (_ bv0 1)))))
 (= (_ bv1 1) ?x14049))))
(assert
 (let ((?x6826 (ite (not (bvuge (bvmul (_ bv162720 36) (_ bv140001 36)) (bvadd (_ bv12000000000 36) target_outcome0_t0))) (_ bv1 1) (_ bv0 1))))
 (let (($x32556 (bvuge (_ bv162720 36) (_ bv490849 36))))
 (= (_ bv1 1) (ite $x32556 (_ bv0 1) ?x6826)))))
(assert
 (not (= (_ bv162720 36) chosen)))
(assert
 (let (($x26051 (bvuge (_ bv162869 36) (_ bv490849 36))))
 (let ((?x11279 (ite $x26051 (_ bv0 1) (ite (not (bvuge (bvmul (_ bv162869 36) (_ bv140001 36)) (bvadd (_ bv12000000000 36) target))) (_ bv1 1) (_ bv0 1)))))
 (= (_ bv0 1) ?x11279))))
(assert
 (let ((?x15014 (ite (not (bvuge (bvmul (_ bv162869 36) (_ bv140001 36)) (bvadd (_ bv12000000000 36) target_outcome1_t0))) (_ bv1 1) (_ bv0 1))))
 (let (($x26051 (bvuge (_ bv162869 36) (_ bv490849 36))))
 (= (_ bv0 1) (ite $x26051 (_ bv0 1) ?x15014)))))
(assert
 (not (= (_ bv162869 36) chosen)))
(assert
 (let (($x7125 (bvuge (_ bv162818 36) (_ bv490849 36))))
 (let ((?x24103 (ite $x7125 (_ bv0 1) (ite (not (bvuge (bvmul (_ bv162818 36) (_ bv140001 36)) (bvadd (_ bv12000000000 36) target))) (_ bv1 1) (_ bv0 1)))))
 (= (_ bv1 1) ?x24103))))
(assert
 (let ((?x3233 (ite (not (bvuge (bvmul (_ bv162818 36) (_ bv140001 36)) (bvadd (_ bv12000000000 36) target_outcome0_t0))) (_ bv1 1) (_ bv0 1))))
 (let (($x7125 (bvuge (_ bv162818 36) (_ bv490849 36))))
 (= (_ bv1 1) (ite $x7125 (_ bv0 1) ?x3233)))))
(assert
 (not (= (_ bv162818 36) chosen)))
(assert
 (let (($x20277 (bvuge (_ bv162835 36) (_ bv490849 36))))
 (let ((?x34550 (ite $x20277 (_ bv0 1) (ite (not (bvuge (bvmul (_ bv162835 36) (_ bv140001 36)) (bvadd (_ bv12000000000 36) target))) (_ bv1 1) (_ bv0 1)))))
 (= (_ bv0 1) ?x34550))))
(assert
 (let ((?x4116 (ite (not (bvuge (bvmul (_ bv162835 36) (_ bv140001 36)) (bvadd (_ bv12000000000 36) target_outcome1_t0))) (_ bv1 1) (_ bv0 1))))
 (let (($x20277 (bvuge (_ bv162835 36) (_ bv490849 36))))
 (= (_ bv0 1) (ite $x20277 (_ bv0 1) ?x4116)))))
(assert
 (not (= (_ bv162835 36) chosen)))
(assert
 (let (($x5592 (bvuge (_ bv162831 36) (_ bv490849 36))))
 (let ((?x15550 (ite $x5592 (_ bv0 1) (ite (not (bvuge (bvmul (_ bv162831 36) (_ bv140001 36)) (bvadd (_ bv12000000000 36) target))) (_ bv1 1) (_ bv0 1)))))
 (= (_ bv0 1) ?x15550))))
(assert
 (let ((?x8893 (ite (not (bvuge (bvmul (_ bv162831 36) (_ bv140001 36)) (bvadd (_ bv12000000000 36) target_outcome1_t0))) (_ bv1 1) (_ bv0 1))))
 (let (($x5592 (bvuge (_ bv162831 36) (_ bv490849 36))))
 (= (_ bv0 1) (ite $x5592 (_ bv0 1) ?x8893)))))
(assert
 (not (= (_ bv162831 36) chosen)))
(assert
 (let (($x32475 (bvuge (_ bv162820 36) (_ bv490849 36))))
 (let ((?x25702 (ite $x32475 (_ bv0 1) (ite (not (bvuge (bvmul (_ bv162820 36) (_ bv140001 36)) (bvadd (_ bv12000000000 36) target))) (_ bv1 1) (_ bv0 1)))))
 (= (_ bv1 1) ?x25702))))
(assert
 (let ((?x12604 (ite (not (bvuge (bvmul (_ bv162820 36) (_ bv140001 36)) (bvadd (_ bv12000000000 36) target_outcome0_t0))) (_ bv1 1) (_ bv0 1))))
 (let (($x32475 (bvuge (_ bv162820 36) (_ bv490849 36))))
 (= (_ bv1 1) (ite $x32475 (_ bv0 1) ?x12604)))))
(assert
 (not (= (_ bv162820 36) chosen)))
(assert
 (let (($x34135 (bvuge (_ bv162823 36) (_ bv490849 36))))
 (let ((?x7883 (ite $x34135 (_ bv0 1) (ite (not (bvuge (bvmul (_ bv162823 36) (_ bv140001 36)) (bvadd (_ bv12000000000 36) target))) (_ bv1 1) (_ bv0 1)))))
 (= (_ bv1 1) ?x7883))))
(assert
 (let ((?x18325 (ite (not (bvuge (bvmul (_ bv162823 36) (_ bv140001 36)) (bvadd (_ bv12000000000 36) target_outcome0_t0))) (_ bv1 1) (_ bv0 1))))
 (let (($x34135 (bvuge (_ bv162823 36) (_ bv490849 36))))
 (= (_ bv1 1) (ite $x34135 (_ bv0 1) ?x18325)))))
(assert
 (not (= (_ bv162823 36) chosen)))
(assert
 (= chosen chosen_outcome0))
(assert
 (= chosen chosen_outcome1))
(assert
 (= (= (_ bv1 1) ((_ extract 0 0) target_outcome0_t0)) (= target_bit_0_0_bool true)))
(assert
 (= (= (_ bv1 1) ((_ extract 1 1) target_outcome0_t0)) (= target_bit_0_1_bool true)))
(assert
 (= (= (_ bv1 1) ((_ extract 2 2) target_outcome0_t0)) (= target_bit_0_2_bool true)))
(assert
 (= (= (_ bv1 1) ((_ extract 3 3) target_outcome0_t0)) (= target_bit_0_3_bool true)))
(assert
 (= (= (_ bv1 1) ((_ extract 4 4) target_outcome0_t0)) (= target_bit_0_4_bool true)))
(assert
 (= (= (_ bv1 1) ((_ extract 5 5) target_outcome0_t0)) (= target_bit_0_5_bool true)))
(assert
 (= (= (_ bv1 1) ((_ extract 6 6) target_outcome0_t0)) (= target_bit_0_6_bool true)))
(assert
 (= (= (_ bv1 1) ((_ extract 7 7) target_outcome0_t0)) (= target_bit_0_7_bool true)))
(assert
 (= (= (_ bv1 1) ((_ extract 8 8) target_outcome0_t0)) (= target_bit_0_8_bool true)))
(assert
 (= (= (_ bv1 1) ((_ extract 9 9) target_outcome0_t0)) (= target_bit_0_9_bool true)))
(assert
 (= (= (_ bv1 1) ((_ extract 10 10) target_outcome0_t0)) (= target_bit_0_10_bool true)))
(assert
 (= (= (_ bv1 1) ((_ extract 11 11) target_outcome0_t0)) (= target_bit_0_11_bool true)))
(assert
 (= (= (_ bv1 1) ((_ extract 12 12) target_outcome0_t0)) (= target_bit_0_12_bool true)))
(assert
 (= (= (_ bv1 1) ((_ extract 13 13) target_outcome0_t0)) (= target_bit_0_13_bool true)))
(assert
 (= (= (_ bv1 1) ((_ extract 14 14) target_outcome0_t0)) (= target_bit_0_14_bool true)))
(assert
 (= (= (_ bv1 1) ((_ extract 15 15) target_outcome0_t0)) (= target_bit_0_15_bool true)))
(assert
 (= (= (_ bv1 1) ((_ extract 16 16) target_outcome0_t0)) (= target_bit_0_16_bool true)))
(assert
 (= (= (_ bv1 1) ((_ extract 17 17) target_outcome0_t0)) (= target_bit_0_17_bool true)))
(assert
 (= (= (_ bv1 1) ((_ extract 18 18) target_outcome0_t0)) (= target_bit_0_18_bool true)))
(assert
 (= (= (_ bv1 1) ((_ extract 19 19) target_outcome0_t0)) (= target_bit_0_19_bool true)))
(assert
 (= (= (_ bv1 1) ((_ extract 20 20) target_outcome0_t0)) (= target_bit_0_20_bool true)))
(assert
 (= (= (_ bv1 1) ((_ extract 21 21) target_outcome0_t0)) (= target_bit_0_21_bool true)))
(assert
 (= (= (_ bv1 1) ((_ extract 22 22) target_outcome0_t0)) (= target_bit_0_22_bool true)))
(assert
 (= (= (_ bv1 1) ((_ extract 23 23) target_outcome0_t0)) (= target_bit_0_23_bool true)))
(assert
 (= (= (_ bv1 1) ((_ extract 0 0) target_outcome1_t0)) (= target_bit_1_0_bool true)))
(assert
 (= (= (_ bv1 1) ((_ extract 1 1) target_outcome1_t0)) (= target_bit_1_1_bool true)))
(assert
 (= (= (_ bv1 1) ((_ extract 2 2) target_outcome1_t0)) (= target_bit_1_2_bool true)))
(assert
 (= (= (_ bv1 1) ((_ extract 3 3) target_outcome1_t0)) (= target_bit_1_3_bool true)))
(assert
 (= (= (_ bv1 1) ((_ extract 4 4) target_outcome1_t0)) (= target_bit_1_4_bool true)))
(assert
 (= (= (_ bv1 1) ((_ extract 5 5) target_outcome1_t0)) (= target_bit_1_5_bool true)))
(assert
 (= (= (_ bv1 1) ((_ extract 6 6) target_outcome1_t0)) (= target_bit_1_6_bool true)))
(assert
 (= (= (_ bv1 1) ((_ extract 7 7) target_outcome1_t0)) (= target_bit_1_7_bool true)))
(assert
 (= (= (_ bv1 1) ((_ extract 8 8) target_outcome1_t0)) (= target_bit_1_8_bool true)))
(assert
 (= (= (_ bv1 1) ((_ extract 9 9) target_outcome1_t0)) (= target_bit_1_9_bool true)))
(assert
 (= (= (_ bv1 1) ((_ extract 10 10) target_outcome1_t0)) (= target_bit_1_10_bool true)))
(assert
 (= (= (_ bv1 1) ((_ extract 11 11) target_outcome1_t0)) (= target_bit_1_11_bool true)))
(assert
 (= (= (_ bv1 1) ((_ extract 12 12) target_outcome1_t0)) (= target_bit_1_12_bool true)))
(assert
 (= (= (_ bv1 1) ((_ extract 13 13) target_outcome1_t0)) (= target_bit_1_13_bool true)))
(assert
 (= (= (_ bv1 1) ((_ extract 14 14) target_outcome1_t0)) (= target_bit_1_14_bool true)))
(assert
 (= (= (_ bv1 1) ((_ extract 15 15) target_outcome1_t0)) (= target_bit_1_15_bool true)))
(assert
 (= (= (_ bv1 1) ((_ extract 16 16) target_outcome1_t0)) (= target_bit_1_16_bool true)))
(assert
 (= (= (_ bv1 1) ((_ extract 17 17) target_outcome1_t0)) (= target_bit_1_17_bool true)))
(assert
 (= (= (_ bv1 1) ((_ extract 18 18) target_outcome1_t0)) (= target_bit_1_18_bool true)))
(assert
 (= (= (_ bv1 1) ((_ extract 19 19) target_outcome1_t0)) (= target_bit_1_19_bool true)))
(assert
 (= (= (_ bv1 1) ((_ extract 20 20) target_outcome1_t0)) (= target_bit_1_20_bool true)))
(assert
 (= (= (_ bv1 1) ((_ extract 21 21) target_outcome1_t0)) (= target_bit_1_21_bool true)))
(assert
 (= (= (_ bv1 1) ((_ extract 22 22) target_outcome1_t0)) (= target_bit_1_22_bool true)))
(assert
 (= (= (_ bv1 1) ((_ extract 23 23) target_outcome1_t0)) (= target_bit_1_23_bool true)))
(check-sat)
(exit)